
Gurobi 12.0.3 (linux64) logging started Fri Mar 27 08:16:37 2026

Set parameter LogFile to value "/home/solar-wind/WT_Solar_results_bigM100000_thread4/case24_ieee_rts_theta0.1_epsilon0.05_gurobi_seed0_num_gen38_N_WDR250_load_scaling_factor1_EIFICA_T24_num_Solar5_num_WT10.txt"
Gurobi Optimizer version 12.0.3 build v12.0.3rc0 (linux64 - "Ubuntu 22.04.5 LTS")

CPU model: Intel(R) Xeon(R) Platinum 8378A CPU @ 3.00GHz, instruction set [SSE2|AVX|AVX2|AVX512]
Thread count: 32 physical cores, 64 logical processors, using up to 4 threads

Non-default parameters:
TimeLimit  14400
MIPGap  0.001
Threads  4

Academic license 2721591 - for non-commercial use only - registered to fa___@mails.neu.edu.cn
Optimize a model with 658436 rows, 2075 columns and 62818024 nonzeros
Model fingerprint: 0x3eb7b1b8
Model has 912 quadratic objective terms
Coefficient statistics:
  Matrix range     [3e-07, 7e+01]
  Objective range  [2e+01, 6e+01]
  QObjective range [4e-03, 2e-02]
  Bounds range     [0e+00, 0e+00]
  RHS range        [4e-02, 1e+03]
Presolve removed 534406 rows and 0 columns (presolve time = 5s)...
Presolve removed 535280 rows and 0 columns
Presolve time: 6.09s
Presolved: 123156 rows, 2949 columns, 3437182 nonzeros
Presolved model has 912 quadratic objective terms
Elapsed ordering time = 9s
Elapsed ordering time = 10s
Ordering time: 17.45s
Elapsed ordering time = 18s
Elapsed ordering time = 20s
Elapsed ordering time = 24s
Elapsed ordering time = 25s
Elapsed ordering time = 28s
Elapsed ordering time = 30s
Elapsed ordering time = 33s
Elapsed ordering time = 36s
Ordering time: 40.43s

Barrier statistics:
 Dense cols : 1059
 AA' NZ     : 1.147e+08
 Factor NZ  : 6.343e+08 (roughly 5.0 GB of memory)
 Factor Ops : 9.125e+12 (roughly 50 seconds per iteration)
 Threads    : 4

                  Objective                Residual
Iter       Primal          Dual         Primal    Dual     Compl     Time
   0   5.46648706e+08 -2.63771652e+08  3.65e+04 1.00e+03  9.93e+05   104s
   1   4.53562789e+08 -2.03001289e+08  3.21e+04 8.79e+02  8.75e+05   104s
   2   4.42481766e+08 -2.04216251e+08  3.16e+04 8.64e+02  8.72e+05   105s
   3   4.17758392e+08 -2.56915448e+08  3.03e+04 8.27e+02  8.49e+05   105s
   4   3.63523106e+08 -2.48441719e+08  2.75e+04 7.46e+02  7.68e+05   105s
   5   3.13845778e+08 -2.83190181e+08  2.48e+04 6.67e+02  7.12e+05   105s
   6   2.73195411e+08 -3.28312527e+08  2.24e+04 5.98e+02  6.84e+05   105s
   7   2.37487400e+08 -3.66287957e+08  2.02e+04 5.35e+02  6.55e+05   105s
   8   1.99621180e+08 -3.81186598e+08  1.77e+04 4.65e+02  5.72e+05   105s
   9   1.70971876e+08 -3.96612033e+08  1.57e+04 4.09e+02  5.04e+05   106s
  10   1.43069688e+08 -4.18709929e+08  1.36e+04 3.51e+02  4.34e+05   106s
  11   1.19485504e+08 -4.39293214e+08  1.17e+04 3.00e+02  3.73e+05   106s
  12   9.74941197e+07 -4.62559214e+08  9.95e+03 2.51e+02  3.14e+05   106s
  13   7.89788281e+07 -4.86508631e+08  8.38e+03 2.08e+02  2.62e+05   106s
  14   6.48341975e+07 -5.09140084e+08  7.11e+03 1.74e+02  2.20e+05   106s
  15   5.33528465e+07 -5.27567904e+08  6.01e+03 1.45e+02  1.85e+05   106s
  16   4.31103308e+07 -5.43557676e+08  4.97e+03 1.19e+02  1.53e+05   106s
  17   3.45368577e+07 -5.56811364e+08  4.05e+03 9.67e+01  1.25e+05   106s
  18   2.05228159e+07 -5.75974343e+08  2.47e+03 5.82e+01  8.29e+04   107s
  19   7.59961131e+06 -5.57615876e+08  1.36e+03 2.11e+01  3.73e+04   107s
  20   5.84421508e+06 -5.24647242e+08  1.10e+03 1.58e+01  2.83e+04   107s
  21   4.51082279e+06 -4.81524007e+08  8.57e+02 1.19e+01  2.15e+04   107s
  22   3.52584370e+06 -4.35694669e+08  6.56e+02 8.94e+00  1.65e+04   107s
  23   2.74032598e+06 -3.87576111e+08  4.89e+02 6.63e+00  1.24e+04   107s
  24   2.09297165e+06 -3.35187819e+08  3.46e+02 4.68e+00  8.95e+03   107s
  25   1.68331173e+06 -2.91106316e+08  2.51e+02 3.39e+00  6.61e+03   107s
  26   1.23741783e+06 -2.78289408e+08  1.33e+02 1.87e+00  4.70e+03   107s
  27   1.00633666e+06 -2.50489451e+08  7.04e+01 1.00e+00  3.31e+03   107s
  28   8.63124520e+05 -2.07232259e+08  3.51e+01 4.72e-01  2.23e+03   108s
  29   8.27527002e+05 -1.47306090e+08  2.16e+01 2.95e-01  1.45e+03   108s
  30   8.19468370e+05 -1.33708683e+08  1.78e+01 2.43e-01  1.28e+03   108s
  31   8.14741240e+05 -1.23941968e+08  1.53e+01 2.10e-01  1.17e+03   109s
  32   8.10693664e+05 -1.12830890e+08  1.28e+01 1.76e-01  1.04e+03   109s
  33   8.08696276e+05 -1.05425759e+08  1.12e+01 1.55e-01  9.60e+02   109s
  34   8.05771447e+05 -9.12075892e+07  8.55e+00 1.17e-01  8.15e+02   110s
  35   8.04493466e+05 -7.82620134e+07  6.50e+00 8.89e-02  6.89e+02   110s
  36   8.02544522e+05 -6.25711384e+07  4.51e+00 6.17e-02  5.50e+02   111s
  37   8.01872268e+05 -5.86318019e+07  3.90e+00 5.34e-02  5.04e+02   114s
  38   7.97964745e+05 -2.43677154e+07  3.99e-01 5.47e-03  2.00e+02   145s
  39   7.95736959e+05  2.60733595e+05  7.36e-03 8.57e-02  4.22e+00   190s
  40   7.46360357e+05  5.95028898e+05  5.55e-04 2.78e-02  1.19e+00   227s
  41   7.27353383e+05  6.81937984e+05  6.14e-05 3.79e-03  3.58e-01   295s
  42   7.23286553e+05  7.04405203e+05  1.85e-05 9.34e-07  1.49e-01   558s
  43   7.21347371e+05  7.15654083e+05  4.02e-07 2.03e-08  4.48e-02   600s
  44   7.20706436e+05  7.18846679e+05  2.24e-08 1.13e-09  1.46e-02   645s
  45   7.20539684e+05  7.19703469e+05  2.19e-09 1.02e-10  6.59e-03   690s
  46   7.20479816e+05  7.20001891e+05  8.56e-11 3.29e-11  3.76e-03   729s
  47   7.20417999e+05  7.20320478e+05  2.04e-10 2.09e-11  7.68e-04   773s
  48   7.20409652e+05  7.20363297e+05  5.95e-10 2.62e-10  3.65e-04   812s
  49   7.20402517e+05  7.20400177e+05  3.73e-10 8.00e-11  1.84e-05   850s
  50   7.20402142e+05  7.20402109e+05  1.56e-09 2.19e-12  2.59e-07   887s
  51   7.20402137e+05  7.20402136e+05  7.26e-08 1.09e-09  3.91e-09   925s

Barrier solved model in 51 iterations and 925.09 seconds (762.06 work units)
Optimal objective 7.20402137e+05

